logs/drand/feas/drand-07-075-1.sol
# Objective value = 155
x0,1_4 0
x0,1_12 0
x0,1_44 0
x0,1_50 0
x0,1_55 0
x0,1_57 0
x0,1_70 0
x0,2_4 0
x0,2_12 0
x0,2_44 0
x0,2_50 0
x0,2_55 0
x0,2_57 0
x0,2_70 0
x0,3_4 0
x0,3_12 0
x0,3_44 0
x0,3_50 0
x0,3_55 0
x0,3_57 0
x0,3_70 0
x0,4_4 0
x0,4_12 0
x0,4_44 0
x0,4_50 0
x0,4_55 0
x0,4_57 0
x0,4_70 0
x0,5_4 0
x0,5_12 0
x0,5_44 0
x0,5_50 0
x0,5_55 1
x0,5_57 0
x0,5_70 0
x0,6_4 0
x0,6_12 0
x0,6_44 0
x0,6_50 0
x0,6_55 0
x0,6_57 0
x0,6_70 1
x1,2_4 1
x1,2_12 0
x1,2_44 0
x1,2_50 0
x1,2_55 0
x1,2_57 0
x1,2_70 0
x1,3_4 0
x1,3_12 0
x1,3_44 0
x1,3_50 0
x1,3_55 0
x1,3_57 0
x1,3_70 0
x1,4_4 0
x1,4_12 1
x1,4_44 0
x1,4_50 0
x1,4_55 0
x1,4_57 0
x1,4_70 0
x1,5_4 0
x1,5_12 0
x1,5_44 0
x1,5_50 0
x1,5_55 0
x1,5_57 0
x1,5_70 0
x1,6_4 0
x1,6_12 0
x1,6_44 0
x1,6_50 0
x1,6_55 0
x1,6_57 0
x1,6_70 0
x2,3_4 0
x2,3_12 0
x2,3_44 0
x2,3_50 0
x2,3_55 0
x2,3_57 0
x2,3_70 0
x2,4_4 0
x2,4_12 0
x2,4_44 0
x2,4_50 0
x2,4_55 0
x2,4_57 0
x2,4_70 0
x2,5_4 0
x2,5_12 0
x2,5_44 0
x2,5_50 1
x2,5_55 0
x2,5_57 0
x2,5_70 0
x2,6_4 0
x2,6_12 0
x2,6_44 0
x2,6_50 0
x2,6_55 0
x2,6_57 0
x2,6_70 0
x3,4_4 0
x3,4_12 0
x3,4_44 0
x3,4_50 0
x3,4_55 0
x3,4_57 0
x3,4_70 0
x3,5_4 0
x3,5_12 0
x3,5_44 1
x3,5_50 0
x3,5_55 0
x3,5_57 0
x3,5_70 0
x3,6_4 0
x3,6_12 0
x3,6_44 0
x3,6_50 0
x3,6_55 0
x3,6_57 0
x3,6_70 0
x4,5_4 0
x4,5_12 0
x4,5_44 0
x4,5_50 0
x4,5_55 0
x4,5_57 0
x4,5_70 0
x4,6_4 0
x4,6_12 0
x4,6_44 0
x4,6_50 0
x4,6_55 0
x4,6_57 1
x4,6_70 0
x5,6_4 0
x5,6_12 0
x5,6_44 0
x5,6_50 0
x5,6_55 0
x5,6_57 0
x5,6_70 0
p0 0
p1 1
p2 5
p3 11
p4 13
p5 55
p6 70
